Minimize

121.066 x_0_1 + 92.85 x_0_2 + 140.543 x_0_3 + 159.947 x_0_5 + 150.0 x_1_2 + 104.211 x_1_9 + 123.415 x_3_5 + 207.838 x_3_7 + 108.12 x_3_8 + 51.523 x_4_5 + 201.029 x_4_6 + 138.0 x_4_9 + 260.415 x_5_6 + 97.306 x_5_7 + 167.624 x_6_7 + 93.161 x_7_8


Subject To

a0: x_0_1 + x_0_2 + x_0_3 + x_0_5 >= 1
a1: x_1_0 + x_1_2 + x_1_9 >= 1
a2: x_2_0 + x_2_1 >= 1
a3: x_3_0 + x_3_5 + x_3_7 + x_3_8 >= 1
a4: x_4_5 + x_4_6 + x_4_9 >= 1
a5: x_5_0 + x_5_3 + x_5_4 + x_5_6 + x_5_7 >= 1
a6: x_6_4 + x_6_5 + x_6_7 >= 1
a7: x_7_3 + x_7_5 + x_7_6 + x_7_8 >= 1
a8: x_8_3 + x_8_7 >= 1




Binary

x_0_1 x_0_2 x_0_3 x_0_5 x_1_2 x_1_9 x_3_5 x_3_7 x_3_8 x_4_5 x_4_6 x_4_9 x_5_6 x_5_7 x_6_7 x_7_8

 
End
